basic.log

------ OPTIMAL OBJECTIVE VALUE ------------------------------------

The minimum cost of expansion is: ($/year)
Total_Cost = 1440480


------ OPTIMAL SOLUTION --------------------------------------------

Here is details of the minimum-cost expansion plan:

(i) Operating sites: (1 indicates the site will be operating)
W [*] :=
     Yuma  0
   Fresno  0
   Tucson  1
   Pomona  1
  SantaFe  0
FlagStaff  0
 LasVegas  0
 StGeorge  0
;


(ii) Amount of ingredients to be shipped to each site (ton/year):
X [*,*] (tr)
:           CORN  WHEAT POTATO    :=
Yuma           0      0      0
Fresno         0      0      0
Tucson      4720   3705   3475
Pomona      5860   4645   4295
SantaFe        0      0      0
FlagStaff      0      0      0
LasVegas       0      0      0
StGeorge       0      0      0
;


(iii) Production plan for each site (ton/year):
Production [*,*]
:         Regular GrOnion PartyMix    :=
Yuma           0       0        0
Fresno         0       0        0
Tucson      4100    2900     4900
Pomona      5100    3500     6200
SantaFe        0       0        0
FlagStaff      0       0        0
LasVegas       0       0        0
StGeorge       0       0        0
;


(iv) Distribution of products among the customers (ton/year):
Y [Regular,*,*]
:          Jones   YZCO SquareQ AJStores SunQuest HarmsPath    :=
Yuma           0      0      0        0        0        0
Fresno         0      0      0        0        0        0
Tucson         0   1400   1200        0        0     1500
Pomona      1300      0      0     1900     1900        0
SantaFe        0      0      0        0        0        0
FlagStaff      0      0      0        0        0        0
LasVegas       0      0      0        0        0        0
StGeorge       0      0      0        0        0        0

 [GrOnion,*,*]
:         Jones   YZCO SquareQ AJStores SunQuest HarmsPath    :=
Yuma          0      0      0        0        0        0
Fresno        0      0      0        0        0        0
Tucson        0   1100    800        0        0     1000
Pomona      900      0      0     1200     1400        0
SantaFe       0      0      0        0        0        0
FlagStaff     0      0      0        0        0        0
LasVegas      0      0      0        0        0        0
StGeorge      0      0      0        0        0        0

 [PartyMix,*,*]
:          Jones   YZCO SquareQ AJStores SunQuest HarmsPath    :=
Yuma           0      0      0        0        0        0
Fresno         0      0      0        0        0        0
Tucson         0   1700   1800        0        0     1400
Pomona      1700      0      0     2200     2300        0
SantaFe        0      0      0        0        0        0
FlagStaff      0      0      0        0        0        0
LasVegas       0      0      0        0        0        0
StGeorge       0      0      0        0        0        0
;


(v) States with operating site:
(1 indicates the state will have at least one operating site)
Z [*] :=
AZ  1
CA  1
NM  0
NV  0
UT  0
;


-------------------------------------------------------------------
